(set-logic QF_LIA)
(set-info :ran/ran2.smt2)
(set-info :smt-lib-version 2.0)
(declare-fun x1 () Int)
(declare-fun x2 () Int)
(declare-fun x3 () Int)
(assert (<= (+ (* 8 x1) (* 10 x2) (* 9 x3) ) 203))
(assert (<= (+ (* 0 x1) (* 8 x2) (* 3 x3) ) 2))
(assert (<= (+ (* 10 x1) (* 4 x2) (* (- 2) x3) ) (- 58)))
(assert (<= (+ (* 8 x1) (* 4 x2) (* (- 10) x3) ) (- 132)))
(assert (<= (+ (* 2 x1) (* (- 2) x2) (* 1 x3) ) (- 148)))
(assert (<= (+ (* (- 9) x1) (* 5 x2) (* 6 x3) ) (- 195)))
(assert (<= (+ (* 1 x1) (* 0 x2) (* 0 x3) ) 446))
(assert (<= (+ (* (- 1) x1) (* 0 x2) (* 0 x3) ) 446))
(assert (<= (+ (* 0 x1) (* 1 x2) (* 0 x3) ) 446))
(assert (<= (+ (* 0 x1) (* (- 1) x2) (* 0 x3) ) 446))
(assert (<= (+ (* 0 x1) (* 0 x2) (* 1 x3) ) 446))
(assert (<= (+ (* 0 x1) (* 0 x2) (* (- 1) x3) ) 446))
